
Gurobi 10.0.3 (linux64, gurobi_cl) logging started Thu Nov  9 11:48:34 2023

Set parameter Username
Set parameter TimeLimit to value 3600
Set parameter LogFile to value "RCPSP_1186.log"
Set parameter Threads to value 32
Academic license - for non-commercial use only - expires 2024-10-30
Using license file /home/jrivera6/gurobi-licenses/v1003/compute-0-37/gurobi.lic

Gurobi Optimizer version 10.0.3 build v10.0.3rc0 (linux64)
Copyright (c) 2023, Gurobi Optimization, LLC

Read MPS format model from file RCPSP_1186.mps
Reading time = 0.06 seconds
RCPSP_1186: 42947 rows, 17020 columns, 142862 nonzeros

CPU model: Intel(R) Xeon(R) Gold 6242 CPU @ 2.80GHz, instruction set [SSE2|AVX|AVX2|AVX512]
Thread count: 32 physical cores, 32 logical processors, using up to 32 threads

Optimize a model with 42947 rows, 17020 columns and 142862 nonzeros
Model fingerprint: 0x4a2be0e7
Variable types: 92 continuous, 16928 integer (16928 binary)
Coefficient statistics:
  Matrix range     [1e+00, 4e+02]
  Objective range  [1e+00, 1e+00]
  Bounds range     [1e+00, 1e+00]
  RHS range        [1e+00, 4e+02]
Presolve removed 8006 rows and 2125 columns
Presolve time: 3.79s
Presolved: 34941 rows, 14895 columns, 120435 nonzeros
Variable types: 91 continuous, 14804 integer (14804 binary)

Deterministic concurrent LP optimizer: primal and dual simplex (primal and dual model)
Showing first log only...

Root relaxation presolved: 34941 rows, 14895 columns, 120435 nonzeros


Root simplex log...

Iteration    Objective       Primal Inf.    Dual Inf.      Time
    2036    8.7000000e+01   0.000000e+00   0.000000e+00      5s
Concurrent spin time: 0.51s

Solved with dual simplex (dual model)

Root relaxation: objective 8.700000e+01, 17019 iterations, 1.43 seconds (0.14 work units)

    Nodes    |    Current Node    |     Objective Bounds      |     Work
 Expl Unexpl |  Obj  Depth IntInf | Incumbent    BestBd   Gap | It/Node Time

H    0     0                      87.0000000   87.00000  0.00%     -    7s
     0     0   87.00000    0    8   87.00000   87.00000  0.00%     -    7s

Explored 1 nodes (20706 simplex iterations) in 7.64 seconds (3.32 work units)
Thread count was 32 (of 32 available processors)

Solution count 1: 87 

Optimal solution found (tolerance 1.00e-04)
Best objective 8.700000000000e+01, best bound 8.700000000000e+01, gap 0.0000%

Wrote result file 'RCPSP_1186.sol'

